NAME:  test1
TYPE: AGTSP
COMMENT: gtsp tours
DIMENSION:  73
GTSP_SETS: 13
EDGE_WEIGHT_TYPE: EXPLICIT
EDGE_WEIGHT_FORMAT: FULL_MATRIX 
EDGE_WEIGHT_SECTION
999999	0	999999	999999	999999	999999	24256	24256	24256	24256	24256	24248	24221	24221	24213	999999	999999	999999	24235	24235	24235	24227	999999	999999	24243	24243	24243	24243	24235	999999	24251	24251	24251	24251	24251	24243	24251	24251
999999	999999	0	999999	999999	999999	24256	24256	24256	999999	999999	999999	24221	24221	24221	24213	999999	999999	24235	24235	24235	24235	24227	999999	24243	24243	24243	24243	24243	24235	24251	24251	24251	999999	999999	999999	24251	24251
999999	999999	999999	0	999999	999999	24256	24256	24256	24256	999999	999999	24221	24221	24221	24221	24213	999999	24235	24235	24235	24235	24235	24227	24243	24243	24243	24243	999999	999999	24251	24251	24251	24251	999999	999999	24251	24251
999999	999999	999999	999999	0	999999	24256	24256	24256	24256	24256	999999	24221	24221	24221	24221	24221	24213	24235	24235	24235	24235	24235	999999	24243	24243	24243	24243	24243	999999	24251	24251	24251	24251	24251	999999	24251	24251
999999	999999	999999	999999	999999	0	24256	24256	24256	24256	24256	24256	24221	24221	24221	24221	24221	24221	24235	24235	24235	24235	24235	24235	24243	24243	24243	24243	24243	24243	24251	24251	24251	24251	24251	24251	24251	24251
0	999999	999999	999999	999999	999999	24256	24256	24256	24256	24248	999999	24221	24213	999999	999999	999999	999999	24235	24235	24227	999999	999999	999999	24243	24243	24243	24235	999999	999999	24251	24251	24251	24251	24243	999999	24251	24251
24256	24256	24256	24256	24256	24248	999999	0	999999	999999	999999	999999	24263	24263	24263	24263	24263	24255	24269	24269	999999	999999	999999	999999	24247	24247	24247	24247	24239	999999	24244	24244	24244	24244	24236	999999	24236	24236
24256	24256	24256	999999	999999	999999	999999	999999	0	999999	999999	999999	24263	24263	24263	999999	999999	999999	24269	24269	24269	999999	999999	999999	24247	24247	24247	24247	24247	24239	24244	24244	24244	24244	24244	24236	24236	24236
24256	24256	24256	24256	999999	999999	999999	999999	999999	0	999999	999999	24263	24263	24263	24263	999999	999999	24269	24269	24269	24269	999999	999999	24247	24247	24247	24247	999999	999999	24244	24244	24244	24244	999999	999999	24236	24236
24256	24256	24256	24256	24256	999999	999999	999999	999999	999999	0	999999	24263	24263	24263	24263	24263	999999	24269	24269	24269	24269	24269	999999	24247	24247	24247	24247	24247	999999	24244	24244	24244	24244	24244	999999	24236	24236
24256	24256	24256	24256	24256	24256	999999	999999	999999	999999	999999	0	24263	24263	24263	24263	24263	24263	24269	24269	24269	24269	24269	24269	24247	24247	24247	24247	24247	24247	24244	24244	24244	24244	24244	24244	24236	24236
24256	24256	24256	24256	24248	999999	0	999999	999999	999999	999999	999999	24263	24263	24263	24263	24255	999999	24269	24269	24269	24269	24269	24261	24247	24247	24247	24239	999999	999999	24244	24244	24244	24236	999999	999999	24236	24236
24221	24221	24213	999999	999999	999999	24263	24263	24263	24263	24263	24255	999999	0	999999	999999	999999	999999	24245	24245	24245	24245	24237	999999	24255	24255	24255	24255	24255	24247	24262	24262	24262	24262	24262	24254	24261	24261
24221	24221	24221	24213	999999	999999	24263	24263	24263	999999	999999	999999	999999	999999	0	999999	999999	999999	24245	24245	24245	24245	24245	24237	24255	24255	24255	999999	999999	999999	24262	24262	24262	999999	999999	999999	24261	24261
24221	24221	24221	24221	24213	999999	24263	24263	24263	24263	999999	999999	999999	999999	999999	0	999999	999999	24245	24245	24245	24245	999999	999999	24255	24255	24255	24255	999999	999999	24262	24262	24262	24262	999999	999999	24261	24261
24221	24221	24221	24221	24221	24213	24263	24263	24263	24263	24263	999999	999999	999999	999999	999999	0	999999	24245	24245	24245	24245	24245	999999	24255	24255	24255	24255	24255	999999	24262	24262	24262	24262	24262	999999	24261	24261
24221	24221	24221	24221	24221	24221	24263	24263	24263	24263	24263	24263	999999	999999	999999	999999	999999	0	24245	24245	24245	24245	24245	24245	24255	24255	24255	24255	24255	24255	24262	24262	24262	24262	24262	24262	24261	24261
24221	24213	999999	999999	999999	999999	24263	24263	24263	24263	24255	999999	0	999999	999999	999999	999999	999999	24245	24245	24245	24237	999999	999999	24255	24255	24255	24255	24247	999999	24262	24262	24262	24262	24254	999999	24261	24261
24235	24235	24235	24227	999999	999999	24269	24269	999999	999999	999999	999999	24245	24245	24245	24245	24237	999999	999999	0	999999	999999	999999	999999	24236	24236	24236	24228	999999	999999	24245	24245	24245	24245	24237	999999	24249	24249
24235	24235	24235	24235	24227	999999	24269	24269	24269	999999	999999	999999	24245	24245	24245	24245	24245	24237	999999	999999	0	999999	999999	999999	24236	24236	24236	24236	24228	999999	24245	24245	24245	24245	24245	24237	24249	24249
24235	24235	24235	24235	24235	24227	24269	24269	24269	24269	999999	999999	24245	24245	24245	24245	999999	999999	999999	999999	999999	0	999999	999999	24236	24236	24236	24236	24236	24228	24245	24245	24245	24245	999999	999999	24249	24249
24235	24235	24235	24235	24235	999999	24269	24269	24269	24269	24269	999999	24245	24245	24245	24245	24245	999999	999999	999999	999999	999999	0	999999	24236	24236	24236	24236	24236	999999	24245	24245	24245	24245	24245	999999	24249	24249
24235	24235	24235	24235	24235	24235	24269	24269	24269	24269	24269	24269	24245	24245	24245	24245	24245	24245	999999	999999	999999	999999	999999	0	24236	24236	24236	24236	24236	24236	24245	24245	24245	24245	24245	24245	24249	24249
24235	24235	24227	999999	999999	999999	24269	24269	24269	24269	24269	24261	24245	24245	24245	24237	999999	999999	0	999999	999999	999999	999999	999999	24236	24236	24228	999999	999999	999999	24245	24245	24245	24237	999999	999999	24249	24249
24243	24243	24243	24243	24235	999999	24247	24247	24247	24247	24239	999999	24255	24255	24255	24255	24255	24247	24236	24236	24236	24228	999999	999999	999999	0	999999	999999	999999	999999	24217	24217	24209	999999	999999	999999	24222	24222
24243	24243	24243	24243	24243	24235	24247	24247	24247	24247	24247	24239	24255	24255	24255	999999	999999	999999	24236	24236	24236	24236	24228	999999	999999	999999	0	999999	999999	999999	24217	24217	24217	24209	999999	999999	24222	24222
24243	24243	24243	24243	999999	999999	24247	24247	24247	24247	999999	999999	24255	24255	24255	24255	999999	999999	24236	24236	24236	24236	24236	24228	999999	999999	999999	0	999999	999999	24217	24217	24217	24217	24209	999999	24222	24222
24243	24243	24243	24243	24243	999999	24247	24247	24247	24247	24247	999999	24255	24255	24255	24255	24255	999999	24236	24236	24236	24236	24236	999999	999999	999999	999999	999999	0	999999	24217	24217	24217	24217	24217	24209	24222	24222
24243	24243	24243	24243	24243	24243	24247	24247	24247	24247	24247	24247	24255	24255	24255	24255	24255	24255	24236	24236	24236	24236	24236	24236	999999	999999	999999	999999	999999	0	24217	24217	24217	24217	24217	24217	24222	24222
24243	24243	24243	24235	999999	999999	24247	24247	24247	24239	999999	999999	24255	24255	24255	24255	24247	999999	24236	24236	24228	999999	999999	999999	0	999999	999999	999999	999999	999999	24217	24209	999999	999999	999999	999999	24222	24214
24251	24251	24251	24251	24251	24243	24244	24244	24244	24244	24236	999999	24262	24262	24262	24262	24262	24254	24245	24245	24245	24245	24237	999999	24217	24217	24209	999999	999999	999999	999999	0	999999	999999	999999	999999	24216	24216
24251	24251	24251	999999	999999	999999	24244	24244	24244	24244	24244	24236	24262	24262	24262	999999	999999	999999	24245	24245	24245	24245	24245	24237	24217	24217	24217	24209	999999	999999	999999	999999	0	999999	999999	999999	24216	24216
24251	24251	24251	24251	999999	999999	24244	24244	24244	24244	999999	999999	24262	24262	24262	24262	999999	999999	24245	24245	24245	24245	999999	999999	24217	24217	24217	24217	24209	999999	999999	999999	999999	0	999999	999999	24216	24216
24251	24251	24251	24251	24251	999999	24244	24244	24244	24244	24244	999999	24262	24262	24262	24262	24262	999999	24245	24245	24245	24245	24245	999999	24217	24217	24217	24217	24217	24209	999999	999999	999999	999999	0	999999	24216	24216
24251	24251	24251	24251	24251	24251	24244	24244	24244	24244	24244	24244	24262	24262	24262	24262	24262	24262	24245	24245	24245	24245	24245	24245	24217	24217	24217	24217	24217	24217	999999	999999	999999	999999	999999	0	24216	24216
24251	24251	24251	24251	24243	999999	24244	24244	24244	24236	999999	999999	24262	24262	24262	24262	24254	999999	24245	24245	24245	24237	999999	999999	24217	24209	999999	999999	999999	999999	0	999999	999999	999999	999999	999999	24216	24208
24251	24251	24251	24251	24243	999999	24236	24236	24236	24228	999999	999999	24261	24261	24261	24261	24261	24253	24249	24249	24249	24249	24241	999999	24222	24222	24214	999999	999999	999999	24216	24216	24208	999999	999999	999999	999999	0
24251	24251	24251	24251	24251	24243	24236	24236	24236	24236	24228	999999	24261	24261	24261	999999	999999	999999	24249	24249	24249	24249	24249	24241	24222	24222	24222	24214	999999	999999	24216	24216	24216	24208	999999	999999	999999	999999
GTSP_SET_SECTION:
1 1 2 3 4 5 6 -1
2 7 8 9 10 11 12 -1
3 13 14 15 16 17 18 -1
4 19 20 21 22 23 24 -1
5 25 26 27 28 29 30 -1
6 31 32 33 34 35 36 -1
7 37 38 39 40 41 42 -1
8 43 44 45 46 47 48 -1
9 49 50 51 52 53 54 -1
10 55 56 57 58 59 60 -1
11 61 62 63 64 65 66 -1
12 67 68 69 70 71 72 -1
13 73 -1
EOF